p cnf 231 972
1 2 3 4 5 6 7 8 9 10 11 12 13 14 15 16 17 18 19 20 21 22 23 24 0
25 26 27 28 29 30 31 32 33 34 35 36 37 38 39 40 41 42 43 44 45 46 47 0
48 49 50 51 52 53 54 55 56 57 58 59 60 61 62 63 64 65 66 67 68 69 70 71 72 0
73 74 75 76 77 78 79 80 81 82 83 84 85 86 87 88 89 90 91 92 93 94 95 0
96 97 98 99 100 101 102 103 104 105 106 107 108 109 110 111 112 113 114 115 116 117 0
118 119 120 121 122 123 124 125 126 127 128 129 130 131 132 133 134 135 136 137 138 139 140 141 0
142 143 144 145 146 147 148 149 150 151 152 153 154 155 156 157 158 159 160 161 162 0
163 164 165 166 167 168 169 170 171 172 173 174 175 176 177 178 179 180 181 182 183 184 185 186 187 0
188 189 190 191 192 193 194 195 196 197 198 199 200 201 202 203 204 205 206 207 0
208 209 210 211 212 213 214 215 216 217 218 219 220 221 222 223 224 225 226 227 228 229 230 231 0
-1 -25 0
-1 -48 0
-1 -73 0
-1 -96 0
-1 -118 0
-1 -142 0
-1 -163 0
-1 -188 0
-1 -208 0
-25 -48 0
-25 -73 0
-25 -96 0
-25 -118 0
-25 -142 0
-25 -163 0
-25 -188 0
-25 -208 0
-48 -73 0
-48 -96 0
-48 -118 0
-48 -142 0
-48 -163 0
-48 -188 0
-48 -208 0
-73 -96 0
-73 -118 0
-73 -142 0
-73 -163 0
-73 -188 0
-73 -208 0
-96 -118 0
-96 -142 0
-96 -163 0
-96 -188 0
-96 -208 0
-118 -142 0
-118 -163 0
-118 -188 0
-118 -208 0
-142 -163 0
-142 -188 0
-142 -208 0
-163 -188 0
-163 -208 0
-188 -208 0
-2 -26 0
-2 -49 0
-2 -74 0
-2 -97 0
-2 -119 0
-2 -143 0
-2 -164 0
-2 -189 0
-2 -209 0
-26 -49 0
-26 -74 0
-26 -97 0
-26 -119 0
-26 -143 0
-26 -164 0
-26 -189 0
-26 -209 0
-49 -74 0
-49 -97 0
-49 -119 0
-49 -143 0
-49 -164 0
-49 -189 0
-49 -209 0
-74 -97 0
-74 -119 0
-74 -143 0
-74 -164 0
-74 -189 0
-74 -209 0
-97 -119 0
-97 -143 0
-97 -164 0
-97 -189 0
-97 -209 0
-119 -143 0
-119 -164 0
-119 -189 0
-119 -209 0
-143 -164 0
-143 -189 0
-143 -209 0
-164 -189 0
-164 -209 0
-189 -209 0
-3 -27 0
-3 -50 0
-3 -75 0
-3 -98 0
-3 -120 0
-3 -144 0
-3 -165 0
-3 -210 0
-27 -50 0
-27 -75 0
-27 -98 0
-27 -120 0
-27 -144 0
-27 -165 0
-27 -210 0
-50 -75 0
-50 -98 0
-50 -120 0
-50 -144 0
-50 -165 0
-50 -210 0
-75 -98 0
-75 -120 0
-75 -144 0
-75 -165 0
-75 -210 0
-98 -120 0
-98 -144 0
-98 -165 0
-98 -210 0
-120 -144 0
-120 -165 0
-120 -210 0
-144 -165 0
-144 -210 0
-165 -210 0
-4 -28 0
-4 -51 0
-4 -76 0
-4 -99 0
-4 -121 0
-4 -145 0
-4 -166 0
-4 -211 0
-28 -51 0
-28 -76 0
-28 -99 0
-28 -121 0
-28 -145 0
-28 -166 0
-28 -211 0
-51 -76 0
-51 -99 0
-51 -121 0
-51 -145 0
-51 -166 0
-51 -211 0
-76 -99 0
-76 -121 0
-76 -145 0
-76 -166 0
-76 -211 0
-99 -121 0
-99 -145 0
-99 -166 0
-99 -211 0
-121 -145 0
-121 -166 0
-121 -211 0
-145 -166 0
-145 -211 0
-166 -211 0
-5 -29 0
-5 -52 0
-5 -77 0
-5 -100 0
-5 -122 0
-5 -146 0
-5 -167 0
-5 -190 0
-5 -212 0
-29 -52 0
-29 -77 0
-29 -100 0
-29 -122 0
-29 -146 0
-29 -167 0
-29 -190 0
-29 -212 0
-52 -77 0
-52 -100 0
-52 -122 0
-52 -146 0
-52 -167 0
-52 -190 0
-52 -212 0
-77 -100 0
-77 -122 0
-77 -146 0
-77 -167 0
-77 -190 0
-77 -212 0
-100 -122 0
-100 -146 0
-100 -167 0
-100 -190 0
-100 -212 0
-122 -146 0
-122 -167 0
-122 -190 0
-122 -212 0
-146 -167 0
-146 -190 0
-146 -212 0
-167 -190 0
-167 -212 0
-190 -212 0
-6 -53 0
-6 -78 0
-6 -147 0
-6 -168 0
-6 -213 0
-53 -78 0
-53 -147 0
-53 -168 0
-53 -213 0
-78 -147 0
-78 -168 0
-78 -213 0
-147 -168 0
-147 -213 0
-168 -213 0
-7 -30 0
-7 -54 0
-7 -79 0
-7 -101 0
-7 -123 0
-7 -148 0
-7 -169 0
-7 -191 0
-7 -214 0
-30 -54 0
-30 -79 0
-30 -101 0
-30 -123 0
-30 -148 0
-30 -169 0
-30 -191 0
-30 -214 0
-54 -79 0
-54 -101 0
-54 -123 0
-54 -148 0
-54 -169 0
-54 -191 0
-54 -214 0
-79 -101 0
-79 -123 0
-79 -148 0
-79 -169 0
-79 -191 0
-79 -214 0
-101 -123 0
-101 -148 0
-101 -169 0
-101 -191 0
-101 -214 0
-123 -148 0
-123 -169 0
-123 -191 0
-123 -214 0
-148 -169 0
-148 -191 0
-148 -214 0
-169 -191 0
-169 -214 0
-191 -214 0
-8 -31 0
-8 -55 0
-8 -80 0
-8 -102 0
-8 -124 0
-8 -170 0
-8 -192 0
-8 -215 0
-31 -55 0
-31 -80 0
-31 -102 0
-31 -124 0
-31 -170 0
-31 -192 0
-31 -215 0
-55 -80 0
-55 -102 0
-55 -124 0
-55 -170 0
-55 -192 0
-55 -215 0
-80 -102 0
-80 -124 0
-80 -170 0
-80 -192 0
-80 -215 0
-102 -124 0
-102 -170 0
-102 -192 0
-102 -215 0
-124 -170 0
-124 -192 0
-124 -215 0
-170 -192 0
-170 -215 0
-192 -215 0
-9 -32 0
-9 -56 0
-9 -81 0
-9 -103 0
-9 -125 0
-9 -171 0
-9 -193 0
-9 -216 0
-32 -56 0
-32 -81 0
-32 -103 0
-32 -125 0
-32 -171 0
-32 -193 0
-32 -216 0
-56 -81 0
-56 -103 0
-56 -125 0
-56 -171 0
-56 -193 0
-56 -216 0
-81 -103 0
-81 -125 0
-81 -171 0
-81 -193 0
-81 -216 0
-103 -125 0
-103 -171 0
-103 -193 0
-103 -216 0
-125 -171 0
-125 -193 0
-125 -216 0
-171 -193 0
-171 -216 0
-193 -216 0
-33 -57 0
-33 -104 0
-33 -126 0
-33 -149 0
-33 -172 0
-33 -194 0
-33 -217 0
-57 -104 0
-57 -126 0
-57 -149 0
-57 -172 0
-57 -194 0
-57 -217 0
-104 -126 0
-104 -149 0
-104 -172 0
-104 -194 0
-104 -217 0
-126 -149 0
-126 -172 0
-126 -194 0
-126 -217 0
-149 -172 0
-149 -194 0
-149 -217 0
-172 -194 0
-172 -217 0
-194 -217 0
-10 -34 0
-10 -58 0
-10 -82 0
-10 -105 0
-10 -127 0
-10 -173 0
-10 -195 0
-10 -218 0
-34 -58 0
-34 -82 0
-34 -105 0
-34 -127 0
-34 -173 0
-34 -195 0
-34 -218 0
-58 -82 0
-58 -105 0
-58 -127 0
-58 -173 0
-58 -195 0
-58 -218 0
-82 -105 0
-82 -127 0
-82 -173 0
-82 -195 0
-82 -218 0
-105 -127 0
-105 -173 0
-105 -195 0
-105 -218 0
-127 -173 0
-127 -195 0
-127 -218 0
-173 -195 0
-173 -218 0
-195 -218 0
-11 -59 0
-11 -83 0
-11 -128 0
-11 -150 0
-11 -174 0
-11 -196 0
-11 -219 0
-59 -83 0
-59 -128 0
-59 -150 0
-59 -174 0
-59 -196 0
-59 -219 0
-83 -128 0
-83 -150 0
-83 -174 0
-83 -196 0
-83 -219 0
-128 -150 0
-128 -174 0
-128 -196 0
-128 -219 0
-150 -174 0
-150 -196 0
-150 -219 0
-174 -196 0
-174 -219 0
-196 -219 0
-12 -35 0
-12 -60 0
-12 -84 0
-12 -106 0
-12 -129 0
-12 -151 0
-12 -175 0
-12 -197 0
-12 -220 0
-35 -60 0
-35 -84 0
-35 -106 0
-35 -129 0
-35 -151 0
-35 -175 0
-35 -197 0
-35 -220 0
-60 -84 0
-60 -106 0
-60 -129 0
-60 -151 0
-60 -175 0
-60 -197 0
-60 -220 0
-84 -106 0
-84 -129 0
-84 -151 0
-84 -175 0
-84 -197 0
-84 -220 0
-106 -129 0
-106 -151 0
-106 -175 0
-106 -197 0
-106 -220 0
-129 -151 0
-129 -175 0
-129 -197 0
-129 -220 0
-151 -175 0
-151 -197 0
-151 -220 0
-175 -197 0
-175 -220 0
-197 -220 0
-13 -36 0
-13 -61 0
-13 -85 0
-13 -107 0
-13 -130 0
-13 -176 0
-13 -198 0
-13 -221 0
-36 -61 0
-36 -85 0
-36 -107 0
-36 -130 0
-36 -176 0
-36 -198 0
-36 -221 0
-61 -85 0
-61 -107 0
-61 -130 0
-61 -176 0
-61 -198 0
-61 -221 0
-85 -107 0
-85 -130 0
-85 -176 0
-85 -198 0
-85 -221 0
-107 -130 0
-107 -176 0
-107 -198 0
-107 -221 0
-130 -176 0
-130 -198 0
-130 -221 0
-176 -198 0
-176 -221 0
-198 -221 0
-14 -37 0
-14 -62 0
-14 -86 0
-14 -108 0
-14 -131 0
-14 -152 0
-14 -177 0
-14 -222 0
-37 -62 0
-37 -86 0
-37 -108 0
-37 -131 0
-37 -152 0
-37 -177 0
-37 -222 0
-62 -86 0
-62 -108 0
-62 -131 0
-62 -152 0
-62 -177 0
-62 -222 0
-86 -108 0
-86 -131 0
-86 -152 0
-86 -177 0
-86 -222 0
-108 -131 0
-108 -152 0
-108 -177 0
-108 -222 0
-131 -152 0
-131 -177 0
-131 -222 0
-152 -177 0
-152 -222 0
-177 -222 0
-15 -38 0
-15 -63 0
-15 -87 0
-15 -109 0
-15 -132 0
-15 -153 0
-15 -178 0
-15 -199 0
-15 -223 0
-38 -63 0
-38 -87 0
-38 -109 0
-38 -132 0
-38 -153 0
-38 -178 0
-38 -199 0
-38 -223 0
-63 -87 0
-63 -109 0
-63 -132 0
-63 -153 0
-63 -178 0
-63 -199 0
-63 -223 0
-87 -109 0
-87 -132 0
-87 -153 0
-87 -178 0
-87 -199 0
-87 -223 0
-109 -132 0
-109 -153 0
-109 -178 0
-109 -199 0
-109 -223 0
-132 -153 0
-132 -178 0
-132 -199 0
-132 -223 0
-153 -178 0
-153 -199 0
-153 -223 0
-178 -199 0
-178 -223 0
-199 -223 0
-16 -39 0
-16 -64 0
-16 -88 0
-16 -110 0
-16 -133 0
-16 -154 0
-16 -179 0
-16 -200 0
-16 -224 0
-39 -64 0
-39 -88 0
-39 -110 0
-39 -133 0
-39 -154 0
-39 -179 0
-39 -200 0
-39 -224 0
-64 -88 0
-64 -110 0
-64 -133 0
-64 -154 0
-64 -179 0
-64 -200 0
-64 -224 0
-88 -110 0
-88 -133 0
-88 -154 0
-88 -179 0
-88 -200 0
-88 -224 0
-110 -133 0
-110 -154 0
-110 -179 0
-110 -200 0
-110 -224 0
-133 -154 0
-133 -179 0
-133 -200 0
-133 -224 0
-154 -179 0
-154 -200 0
-154 -224 0
-179 -200 0
-179 -224 0
-200 -224 0
-17 -40 0
-17 -65 0
-17 -89 0
-17 -111 0
-17 -134 0
-17 -155 0
-17 -180 0
-17 -225 0
-40 -65 0
-40 -89 0
-40 -111 0
-40 -134 0
-40 -155 0
-40 -180 0
-40 -225 0
-65 -89 0
-65 -111 0
-65 -134 0
-65 -155 0
-65 -180 0
-65 -225 0
-89 -111 0
-89 -134 0
-89 -155 0
-89 -180 0
-89 -225 0
-111 -134 0
-111 -155 0
-111 -180 0
-111 -225 0
-134 -155 0
-134 -180 0
-134 -225 0
-155 -180 0
-155 -225 0
-180 -225 0
-18 -41 0
-18 -66 0
-18 -90 0
-18 -112 0
-18 -135 0
-18 -156 0
-18 -181 0
-18 -201 0
-41 -66 0
-41 -90 0
-41 -112 0
-41 -135 0
-41 -156 0
-41 -181 0
-41 -201 0
-66 -90 0
-66 -112 0
-66 -135 0
-66 -156 0
-66 -181 0
-66 -201 0
-90 -112 0
-90 -135 0
-90 -156 0
-90 -181 0
-90 -201 0
-112 -135 0
-112 -156 0
-112 -181 0
-112 -201 0
-135 -156 0
-135 -181 0
-135 -201 0
-156 -181 0
-156 -201 0
-181 -201 0
-19 -42 0
-19 -67 0
-19 -91 0
-19 -113 0
-19 -136 0
-19 -157 0
-19 -182 0
-19 -202 0
-19 -226 0
-42 -67 0
-42 -91 0
-42 -113 0
-42 -136 0
-42 -157 0
-42 -182 0
-42 -202 0
-42 -226 0
-67 -91 0
-67 -113 0
-67 -136 0
-67 -157 0
-67 -182 0
-67 -202 0
-67 -226 0
-91 -113 0
-91 -136 0
-91 -157 0
-91 -182 0
-91 -202 0
-91 -226 0
-113 -136 0
-113 -157 0
-113 -182 0
-113 -202 0
-113 -226 0
-136 -157 0
-136 -182 0
-136 -202 0
-136 -226 0
-157 -182 0
-157 -202 0
-157 -226 0
-182 -202 0
-182 -226 0
-202 -226 0
-20 -43 0
-20 -68 0
-20 -92 0
-20 -114 0
-20 -137 0
-20 -158 0
-20 -183 0
-20 -203 0
-20 -227 0
-43 -68 0
-43 -92 0
-43 -114 0
-43 -137 0
-43 -158 0
-43 -183 0
-43 -203 0
-43 -227 0
-68 -92 0
-68 -114 0
-68 -137 0
-68 -158 0
-68 -183 0
-68 -203 0
-68 -227 0
-92 -114 0
-92 -137 0
-92 -158 0
-92 -183 0
-92 -203 0
-92 -227 0
-114 -137 0
-114 -158 0
-114 -183 0
-114 -203 0
-114 -227 0
-137 -158 0
-137 -183 0
-137 -203 0
-137 -227 0
-158 -183 0
-158 -203 0
-158 -227 0
-183 -203 0
-183 -227 0
-203 -227 0
-21 -44 0
-21 -69 0
-21 -93 0
-21 -115 0
-21 -138 0
-21 -159 0
-21 -184 0
-21 -204 0
-21 -228 0
-44 -69 0
-44 -93 0
-44 -115 0
-44 -138 0
-44 -159 0
-44 -184 0
-44 -204 0
-44 -228 0
-69 -93 0
-69 -115 0
-69 -138 0
-69 -159 0
-69 -184 0
-69 -204 0
-69 -228 0
-93 -115 0
-93 -138 0
-93 -159 0
-93 -184 0
-93 -204 0
-93 -228 0
-115 -138 0
-115 -159 0
-115 -184 0
-115 -204 0
-115 -228 0
-138 -159 0
-138 -184 0
-138 -204 0
-138 -228 0
-159 -184 0
-159 -204 0
-159 -228 0
-184 -204 0
-184 -228 0
-204 -228 0
-22 -45 0
-22 -70 0
-22 -94 0
-22 -116 0
-22 -139 0
-22 -160 0
-22 -185 0
-22 -205 0
-22 -229 0
-45 -70 0
-45 -94 0
-45 -116 0
-45 -139 0
-45 -160 0
-45 -185 0
-45 -205 0
-45 -229 0
-70 -94 0
-70 -116 0
-70 -139 0
-70 -160 0
-70 -185 0
-70 -205 0
-70 -229 0
-94 -116 0
-94 -139 0
-94 -160 0
-94 -185 0
-94 -205 0
-94 -229 0
-116 -139 0
-116 -160 0
-116 -185 0
-116 -205 0
-116 -229 0
-139 -160 0
-139 -185 0
-139 -205 0
-139 -229 0
-160 -185 0
-160 -205 0
-160 -229 0
-185 -205 0
-185 -229 0
-205 -229 0
-23 -46 0
-23 -71 0
-23 -117 0
-23 -140 0
-23 -161 0
-23 -186 0
-23 -206 0
-23 -230 0
-46 -71 0
-46 -117 0
-46 -140 0
-46 -161 0
-46 -186 0
-46 -206 0
-46 -230 0
-71 -117 0
-71 -140 0
-71 -161 0
-71 -186 0
-71 -206 0
-71 -230 0
-117 -140 0
-117 -161 0
-117 -186 0
-117 -206 0
-117 -230 0
-140 -161 0
-140 -186 0
-140 -206 0
-140 -230 0
-161 -186 0
-161 -206 0
-161 -230 0
-186 -206 0
-186 -230 0
-206 -230 0
-24 -47 0
-24 -72 0
-24 -95 0
-24 -141 0
-24 -162 0
-24 -187 0
-24 -207 0
-24 -231 0
-47 -72 0
-47 -95 0
-47 -141 0
-47 -162 0
-47 -187 0
-47 -207 0
-47 -231 0
-72 -95 0
-72 -141 0
-72 -162 0
-72 -187 0
-72 -207 0
-72 -231 0
-95 -141 0
-95 -162 0
-95 -187 0
-95 -207 0
-95 -231 0
-141 -162 0
-141 -187 0
-141 -207 0
-141 -231 0
-162 -187 0
-162 -207 0
-162 -231 0
-187 -207 0
-187 -231 0
-207 -231 0
